Cars = 1..200;
Options = 1..5;
Classes = 1..25;
sequenceMinCapacity = [0, 0, 0, 0, 0];
sequenceMaxCapacity = [1, 2, 1, 2, 1];
sequenceSize = [2, 3, 3, 5, 5];
numOrdered = [12, 1, 32, 3, 2, 17, 21, 4, 2, 3, 19, 3, 3, 6, 1, 1, 30, 2, 12, 1, 9, 4, 5, 5, 2];
classHasOption = [|false,  true,  true, false, false
                  |false, false,  true,  true,  true
                  |false, false, false,  true, false
                  |false,  true, false,  true,  true
                  | true,  true,  true, false, false
                  |false, false,  true, false, false
                  | true, false, false, false, false
                  | true, false, false, false,  true
                  | true, false,  true,  true, false
                  | true,  true, false, false,  true
                  | true,  true, false, false, false
                  |false, false,  true,  true, false
                  |false,  true, false, false,  true
                  | true, false,  true, false, false
                  | true, false,  true, false,  true
                  |false,  true,  true,  true,  true
                  |false,  true, false, false, false
                  |false, false,  true, false,  true
                  |false,  true, false,  true, false
                  | true,  true, false,  true,  true
                  |false, false, false, false,  true
                  |false,  true,  true,  true, false
                  | true,  true, false,  true, false
                  | true, false, false,  true, false
                  |false, false, false, false,  true|];
optionOrdering = [3, 5, 1, 4, 2];
